EVRP-TW-SPD dataset generation/evrptwspd_instances/small_instances/Cplex15er/rc204C15.txt
StringID	Type	x	y	Delivery	Pickup	ReadyTime	DueDate	ServiceTime
D0	d	40.0	50.0	0.0	0.0	0.0	960.0	0.0
S0	f	40.0	50.0	0.0	0.0	0.0	960.0	0.0
S7	f	21.0	83.0	0.0	0.0	0.0	960.0	0.0
S9	f	14.0	59.0	0.0	0.0	0.0	960.0	0.0
S11	f	10.0	28.0	0.0	0.0	0.0	960.0	0.0
S13	f	22.0	34.0	0.0	0.0	0.0	960.0	0.0
S14	f	27.0	10.0	0.0	0.0	0.0	960.0	0.0
S17	f	61.0	14.0	0.0	0.0	0.0	960.0	0.0
C79	c	6.0	68.0	2.647058823529412	27.352941176470587	39.0	159.0	10.0
C10	c	10.0	40.0	7.5	22.5	0.0	918.0	10.0
C61	c	45.0	65.0	6.230769230769231	2.769230769230769	618.0	738.0	10.0
C2	c	22.0	75.0	8.8	21.2	0.0	919.0	10.0
C98	c	26.0	52.0	4.5	4.5	0.0	935.0	10.0
C49	c	42.0	12.0	2.8571428571428568	7.142857142857143	0.0	911.0	10.0
C1	c	25.0	85.0	5.882352941176471	14.117647058823529	300.0	420.0	10.0
C63	c	65.0	20.0	1.8461538461538463	4.153846153846153	0.0	910.0	10.0
C74	c	20.0	20.0	8.0	0.0	0.0	913.0	10.0
C75	c	5.0	5.0	16.0	0.0	0.0	879.0	10.0
C22	c	40.0	15.0	15.0	25.0	0.0	915.0	10.0
C20	c	42.0	15.0	3.5714285714285716	6.428571428571429	208.0	328.0	10.0
C76	c	60.0	12.0	6.2	24.8	0.0	907.0	10.0
C48	c	42.0	5.0	1.1904761904761905	8.80952380952381	0.0	904.0	10.0
C86	c	21.0	24.0	24.5	3.5	0.0	917.0	10.0

Q Vehicle fuel tank capacity /77.75/
C Vehicle load capacity /1000.0/
r fuel consumption rate /1.0/
g inverse refueling rate /0.39/
v average Velocity /1.0/
